data_global 
_audit_creation_date        "2015-08-05"
_audit_creation_method CRYSTALS_ver_14.61

_oxford_structure_analysis_title  'xprep in P2(1)'
_chemical_name_systematic         ?
_chemical_melting_point           ?

#looking for refcif 
 
 
# Check this file using the IUCr facility at: 
# http://checkcif.iucr.org/ 
 
# The content below is held in the file 'script/refcif.dat'. This is a text 
# file which you may edit to reflect local conditions. 
# Items which need looking at are represented by a '?'. 
# Items for which there are choices are prefixed with 'choose from'. 
 
_publ_contact_letter 
; 
 Please consider this CIF submission for 
 publication as a Short Format Paper in Acta 
 Crystallographica E. 
; 
_publ_contact_author_name         'Anthony Other' 
_publ_contact_author_address 
; 
 Chemical Crystallography Laboratory, 
 Department of Chemistry, 
 University of Nowhere, 
 Nowhere, NO1 4T, UK. 
; 
 
_publ_contact_author_phone        '+44 1865 000000' 
_publ_contact_author_fax          '+44 1865 000000' 
_publ_contact_author_email        'a.n.other@chem.no.ac.uk' 
_publ_requested_journal           'Section E' 
_publ_requested_category          EO # choose from: FI FM FO CI CM CO AD 
_publ_requested_coeditor_name     'Prof William Clegg' 
 
_publ_section_title 
# Title of paper - generally just the systematic or trivial name 
; ? 
; 
 
# The loop structure below should contain the names and addresses of all 
# authors, in the required order of publication. Repeat as necessary. 
loop_ 
 _publ_author_name 
 _publ_author_address 
 _publ_author_footnote 
 'Other, Anthony N.' # Author 1 
; 
 ? # Address for author 1 
; 
; 
 ? # Footnote for author 1 
; 
 'Else, S. O.' # Author 2 
; 
 ? # Address 2 
; 
; 
 ? # Footnote 2 
; 
 
 
_publ_section_abstract 
# Text of the abstract 
# (a) The Abstract must be self-contained and comprehensible 
# without the rest of the paper. This means no references 
# to atom names or to compound numbers; compounds must be 
# identified as the title compound, or by name or by some other 
# means such as derivatives of each other (e.g. "the 
# corresponding ketone"). 
# (b) The chemical formula of "the title compound" must be given. 
# (c) Any crystallographic molecular symmetry should be 
# mentioned, and also the presence of more than one molecule 
# in the asymmetric unit (i.e. anything other than Z'=1). 
; 
? 
; 
 
_publ_section_related_literature  # Not in version 2.3.1 
############################################################### 
# Essential references (e.g. to the origin of the material studied, related 
# structural studies, and to information supporting the reported structure) 
# should be cited in this section, with appropriate very brief explanatory 
# text, for example `The synthesis of the complex is described by Jones 
# (2001). The anhydrous complex has essentially the same coordination 
# geometry (Smith, 2003).' In addition, all references included in the 
# supplementary materials, but not elsewhere in the published article, 
# should be given here. The simple text `For related literature, see:...' 
# may be used, but further details should be provided in the Comment 
# section, which forms part of the supplementary material. 
############################################################### 
; 
? 
; 
 
_publ_section_comment 
# Text of the paper 
# Note that atoms are referenced as N2, not N(2) or N~2~ 
# If text containing () occur within (), the outer ones should be [] 
# Figures should be referenced as Fig. 
; 
? 
; 
_publ_section_acknowledgements    # Acknowledgments 
; 
? 
; 
_publ_section_figure_captions 
# Captions to figures - Start each caption on a new line after a blank line 
; 
Fig. 1. 
The title compound with displacement ellipsoids drawn at the 50% 
probability level. H atoms are shown as spheres of 
arbitary radius. 
 
; 
 
 
_publ_section_exptl_refinement 
# Some potentially useful phrases are donated by Bill Clegg: 
; 
In the absence of significant anomalous scattering, Friedel pairs were 
merged. 
 
The absolute configuration was arbitrarily assigned. 
 
The relatively large ratio of minimum to maximum corrections applied 
in the multiscan process (1:nnn) reflect changes in the illuminated 
volume of the crystal. 
 
Changes in illuminated volume were kept to a minimum, and were 
taken into account (G\"orbitz, 1999) by the multi-scan inter-frame 
scaling (DENZO/SCALEPACK, Otwinowski & Minor, 1997). 
 
 
G\"orbitz, C. H. (1999). Acta Cryst. B55, 1090-1098. 
 
 
 
 
The H atoms were all located in a difference map, but those 
attached to carbon atoms were repositioned geometrically. 
The H atoms were initially refined with soft restraints on the 
bond lengths and angles to regularise their geometry 
(C---H in the range 0.93--0.98, 
N---H in the range 0.86--0.89 
N---H to 0.86 
O---H = 0.82 
\%A) 
and 
U~iso~(H) (in the range 1.2-1.5 times U~eq~ of the parent atom), 
after which the positions were refined with riding constraints 
(Cooper et al, 2010). 
 
Cooper, R. I., Thompson, A. L. & Watkin, D. J. (2010). J. Appl. Cryst. 
43, 1100-1107. 
 
; 
 
_publ_section_exptl_prep 
# Brief details or a reference. Include solvent if known 
; 
? 
; 
 
# Hand-made tables can be put in the cif. The number of columns 
# is set in the loop header. 
# The contants of each column can either be a piece of text 
# without any spaces (eg a number) or other text enclosed in " " 
# Remove the leading # in the following example 
 
#geom_extra_table_head_A 
#; 
#Table 2. 
#Molecular parameters deviating most from MOGUL averages 
#; 
# 
#loop_ 
#_geom_extra_tableA_col_1 
#_geom_extra_tableA_col_2 
#_geom_extra_tableA_col_3 
#_geom_extra_tableA_col_4 
# 
#Parameter "Observed Value" "MOGUL Value" "MOGUL e.s.d" 
#N5-C6-C4 129 124 "7 (\%)" 
#C3-O10-C2 105 109 "2 (\%)" 
#C6-O7 1.25 1.22 ".02 (\%A)" 
# 
 
data_1 
 
_exptl_special_details 
; 
 The crystal was 
placed in the cold stream of an Oxford 
Cryosystems open-flow nitrogen cryostat (Cosier & 
Glazer, 1986) with a nominal stability of 0.1K. 
 
Cosier, J. & Glazer, A.M., 1986. J. Appl. Cryst. 105-107. 
; 
_refine_special_details 
; 
? 
; 
#--------------------------------------------------------------- 
# _oxford_ data items, April 2010: 
# There is some uncertainty about the correct way of forming local data 
# names, e.g. 
 
# _atom_site_special_shape_oxford 
# or 
# _oxford_atom_site_special_shape 
 
# see: 
# http://www.iucr.org/resources/cif/spec/version1.1/semantics#namespace 
 
# A reserved prefix, e.g. foo, must be used in the following way 
# " If the data file contains items defined in a DDL1 dictionary, the 
# local data names assigned under the reserved prefix must contain it as 
# their first component, e.g. _foo_atom_site_my_item. " 
 
# However, this seems to say the opposite: 
# http://www.iucr.org/__data/iucr/cif/standard/cifstd8.html 
 
# According to advice from the IUCr, CRYSTALS is correct 
#--------------------------------------------------------------- 
# End of 'script/refcif.dat' 
#end of refcif 
_cell_length_a                    7.8515(16)
_cell_length_b                    5.5447(11)
_cell_length_c                    10.921(2)
_cell_angle_alpha                 90
_cell_angle_beta                  96.39(3)
_cell_angle_gamma                 90
_cell_volume                      472.47(9)
 
_symmetry_cell_setting            'monoclinic' 
_symmetry_space_group_name_H-M    'P 1 21 1 ' 
_symmetry_space_group_name_Hall   ? 
loop_
 _symmetry_equiv_pos_as_xyz
 'x,y,z'
 '-x,y+1/2,-z'

loop_
_atom_type_symbol
_atom_type_scat_dispersion_real
_atom_type_scat_dispersion_imag
_atom_type_scat_Cromer_Mann_a1
_atom_type_scat_Cromer_Mann_b1
_atom_type_scat_Cromer_Mann_a2
_atom_type_scat_Cromer_Mann_b2
_atom_type_scat_Cromer_Mann_a3
_atom_type_scat_Cromer_Mann_b3
_atom_type_scat_Cromer_Mann_a4
_atom_type_scat_Cromer_Mann_b4
_atom_type_scat_Cromer_Mann_c
_atom_type_scat_source  
 C       0.0000   0.0000   0.0000   0.0000   0.0000   0.0000   0.0000   0.0000
   0.0000   0.0000   6.6484 'International Tables Vol C 4.2.6.8 and 6.1.1.4'
 H       0.0000   0.0000   0.0000   0.0000   0.0000   0.0000   0.0000   0.0000
   0.0000   0.0000  -3.7409 'International Tables Vol C 4.2.6.8 and 6.1.1.4'
 N       0.0000   0.0000   0.0000   0.0000   0.0000   0.0000   0.0000   0.0000
   0.0000   0.0000   9.3600 'International Tables Vol C 4.2.6.8 and 6.1.1.4'
 O       0.0000   0.0000   0.0000   0.0000   0.0000   0.0000   0.0000   0.0000
   0.0000   0.0000   5.8050 'International Tables Vol C 4.2.6.8 and 6.1.1.4'
 
 
_cell_formula_units_Z                    2

# Given Formula = C9 H10 N2 O4 
# Dc =      1.48 Fooo =    130.00 Mu =      1.18 M =    210.19
# Found Formula = C9 H10 N2 O4 
# Dc =      1.48 FOOO =    130.00 Mu =      1.18 M =    210.19

_chemical_formula_sum             'C9 H10 N2 O4'
_chemical_formula_moiety          'C9 H10 N2 O4'
_chemical_compound_source                ?
_chemical_formula_weight            210.19
 
 
_cell_measurement_reflns_used            0
_cell_measurement_theta_min              0
_cell_measurement_theta_max              0
_cell_measurement_temperature          293
 
_exptl_crystal_description        '?' 
_exptl_crystal_colour             '?' 
_exptl_crystal_size_min           ? 
_exptl_crystal_size_mid           ? 
_exptl_crystal_size_max           ? 
 
_exptl_crystal_density_diffrn     1.477 
_exptl_crystal_density_meas       ? 
_exptl_crystal_density_method     'not measured' 
# Non-dispersive F(000): 
_exptl_crystal_F_000              130 
_exptl_absorpt_coefficient_mu     0.118 
 
# Sheldrick geometric approximatio 1.00 1.00 
_exptl_absorpt_correction_type    none 
_diffrn_measurement_device_type   'Unknown' 
_diffrn_measurement_device        'Serial' 
_diffrn_radiation_monochromator   'graphite' 
_diffrn_radiation_type            '  ?   '
_diffrn_radiation_wavelength           0.35310
_diffrn_measurement_method        \w/2\q 
 
# If a reference occurs more than once, delete the author 
# and date from subsequent references. 
_computing_data_collection        'USER DEFINED DATA COLLECTION' 
_computing_cell_refinement        'USER DEFINED CELL REFINEMENT' 
_computing_data_reduction         'USER DEFINED DATA REDUCTION' 
_computing_structure_solution     'SHELXS 86 (Sheldrick, 1986)' 
_computing_structure_refinement   'CRYSTALS (Betteridge et al., 2003)' 
_computing_publication_material   'CRYSTALS (Betteridge et al., 2003)' 
_computing_molecular_graphics     'CAMERON (Watkin et al., 1996)' 
 
_diffrn_standards_interval_time   . 
_diffrn_standards_interval_count  . 
_diffrn_standards_number          0 
_diffrn_standards_decay_%         ? 
 
_diffrn_ambient_temperature        293
_diffrn_reflns_number             1600 
_reflns_number_total              1600 
_diffrn_reflns_av_R_equivalents   0.000 
# Number of reflections without Friedels Law is 0 
# Number of reflections with Friedels Law is 1600 
# Theoretical number of reflections is about 3655 
 
 
_diffrn_reflns_theta_min          1.510 
_diffrn_reflns_theta_max          15.837 
_diffrn_measured_fraction_theta_max 0.806 
 
_diffrn_reflns_theta_full         12.986 
_diffrn_measured_fraction_theta_full 0.811 
 
 
_diffrn_reflns_limit_h_min        0 
_diffrn_reflns_limit_h_max        12 
_diffrn_reflns_limit_k_min        0 
_diffrn_reflns_limit_k_max        8 
_diffrn_reflns_limit_l_min        -16 
_diffrn_reflns_limit_l_max        16 
_reflns_limit_h_min               -12 
_reflns_limit_h_max               11 
_reflns_limit_k_min               0 
_reflns_limit_k_max               8 
_reflns_limit_l_min               0 
_reflns_limit_l_max               16 
 
_oxford_diffrn_Wilson_B_factor    0.00 
_oxford_diffrn_Wilson_scale       0.00 
 
_atom_sites_solution_primary      direct #heavy,direct,difmap,geom,iterative
# _atom_sites_solution_secondary  difmap
_atom_sites_solution_hydrogens    difmap
 
_refine_diff_density_min          -0.69 
_refine_diff_density_max          0.68 
 
 
# The current dictionary definitions do not cover the 
# situation where the reflections used for refinement were 
# selected by a user-defined sigma threshold 
 
 
# The values actually used during refinement 
_oxford_reflns_threshold_expression_ref     I>3.0\s(I)
_refine_ls_number_reflns          1496 
_refine_ls_number_restraints      1 
_refine_ls_number_parameters      227 
_oxford_refine_ls_R_factor_ref    0.0256 
_refine_ls_wR_factor_ref          0.0209 
_refine_ls_goodness_of_fit_ref    0.9991 
_refine_ls_shift/su_max           0.0004028 
_refine_ls_shift/su_mean          0.0000423 
 
 
# The values computed with all filters except I/sigma 
_oxford_reflns_number_all         1598 
_refine_ls_R_factor_all           0.0336 
_refine_ls_wR_factor_all          0.0229 
 
# The values computed with a 2 sigma cutoff - a la SHELX 
_reflns_threshold_expression      I>2.0\s(I)
_reflns_number_gt                 1522 
_refine_ls_R_factor_gt            0.0274 
_refine_ls_wR_factor_gt           0.0210 
 
# choose from: rm (reference molecule of known chirality), 
# ad (anomolous dispersion - Flack), rmad (rm and ad), 
# syn (from synthesis), unk (unknown) or . (not applicable). 
_chemical_absolute_configuration  'unk' 
 
 
_refine_ls_structure_factor_coef  F 
_refine_ls_matrix_type            full
_refine_ls_hydrogen_treatment     mixed          #undef, noref, refall,
                                                 # refxyz, refU, constr or mixed
_refine_ls_weighting_scheme       calc 
_refine_ls_weighting_details 
;
 Method, part 1, Chebychev polynomial, (Watkin, 1994, Prince, 1982) 
 [weight] = 1.0/[A~0~*T~0~(x)+A~1~*T~1~(x) ... +A~n-1~]*T~n-1~(x)] 
 where A~i~ are the Chebychev coefficients listed below and x= Fcalc/Fmax 
 Method = Robust Weighting (Prince, 1982) 
 W = [weight] * [1-(deltaF/6*sigmaF)^2^]^2^ 
 A~i~ are: 
 3.30 -2.59 0.685 
;
# Insert your own references if required - in alphabetical order 
_publ_section_references 
; 
User-defined data collection reference 
 
User defined data reduction 
 
User defined cell refinement 
 
Betteridge, P.W., Carruthers, J.R., Cooper, R.I., 
Prout, K. & Watkin, D.J. (2003). J. Appl. Cryst. 36, 1487. 
 
Larson, A.C. (1970) Crystallographic Computing, Ed Ahmed, F.R., 
Munksgaard, Copenhagen, 291-294. 
 
Prince, E. 
Mathematical Techniques in Crystallography 
and Materials Science 
Springer-Verlag, New York, 1982. 
 
Sheldrick, G. M. (2008). Acta Cryst A64, 112-122. 
 
Watkin D.J. (1994). 
Acta Cryst, A50, 411-437. 
 
Watkin, D.J., Prout, C.K. & Pearce, L.J. (1996). CAMERON, Chemical 
Crystallography Laboratory, Oxford, UK. 
; 

# Uequiv = arithmetic mean of Ui i.e. Ueqiv = (U1+U2+U3)/3

# Replace last . with number of unfound hydrogen atoms attached to an atom.

# ..._refinement_flags_... 
# . no refinement constraints           S special position constraint on site
# G rigid group refinement of site      R riding atom
# D distance or angle restraint on site T thermal displacement constraints
# U Uiso or Uij restraint (rigid bond)  P partial occupancy constraint


loop_
_atom_site_label
_atom_site_type_symbol
_atom_site_fract_x
_atom_site_fract_y
_atom_site_fract_z
_atom_site_U_iso_or_equiv
_atom_site_occupancy
_atom_site_adp_type
_atom_site_refinement_flags_posn
_atom_site_refinement_flags_adp
_atom_site_refinement_flags_occupancy
_atom_site_disorder_assembly
_atom_site_disorder_group
_atom_site_attached_hydrogens
C1 C 0.18787(12) 1.7780(3) 0.33148(8) 0.0053 1.0000 Uani . . . . . . 
H1 H 0.2533(3) 1.5664(6) 0.1912(2) 0.0197 1.0000 Uani . . . . . . 
N1 N 0.61460(10) 0.8267(2) 0.08401(7) 0.0076 1.0000 Uani . . . . . . 
O1 O 0.17815(15) 1.7451(3) 0.21423(10) 0.0069 1.0000 Uani . . . . . . 
C2 C 0.28125(13) 1.5995(3) 0.41842(9) 0.0061 1.0000 Uani . . . . . . 
H2 H 0.2763(4) 1.6461(6) 0.5151(2) 0.0235 1.0000 Uani . . . . . . 
N2 N 0.92019(9) 0.2840(2) 0.24554(6) 0.0068 1.0000 Uani . . . . . . 
O2 O 0.33376(15) 1.3810(3) 0.17335(10) 0.0075 1.0000 Uani . . . . . . 
C3 C 0.36880(13) 1.3981(3) 0.39573(9) 0.0058 1.0000 Uani . . . . . . 
H3 H 0.4263(3) 1.2959(7) 0.4750(2) 0.0228 1.0000 Uani . . . . . . 
O3 O 0.12052(15) 1.9525(3) 0.37920(10) 0.0073 1.0000 Uani . . . . . . 
C4 C 0.40422(11) 1.2879(3) 0.27561(8) 0.0054 1.0000 Uani . . . . . . 
H4 H 0.5637(3) 0.9495(6) 0.1396(2) 0.0206 1.0000 Uani . . . . . . 
O4 O 0.50083(15) 1.1110(3) 0.27973(11) 0.0080 1.0000 Uani . . . . . . 
C5 C 0.71450(12) 0.6506(3) 0.13591(8) 0.0052 1.0000 Uani . . . . . . 
H5 H 0.6034(4) 0.8481(6) -0.0097(2) 0.0224 1.0000 Uani . . . . . . 
C6 C 0.75055(12) 0.6337(3) 0.26628(9) 0.0062 1.0000 Uani . . . . . . 
H6 H 0.6984(3) 0.7669(6) 0.3254(2) 0.0217 1.0000 Uani . . . . . . 
C7 C 0.85329(13) 0.4514(3) 0.31709(9) 0.0063 1.0000 Uani . . . . . . 
H7 H 0.8858(3) 0.4335(6) 0.4169(2) 0.0202 1.0000 Uani . . . . . . 
C8 C 0.88848(12) 0.2943(3) 0.12127(9) 0.0065 1.0000 Uani . . . . . . 
C9 C 0.78814(13) 0.4725(3) 0.06364(9) 0.0063 1.0000 Uani . . . . . . 
H9 H 0.9467(4) 0.1544(6) 0.0700(2) 0.0231 1.0000 Uani . . . . . . 
H10 H 0.7642(4) 0.4766(7) -0.0371(2) 0.0223 1.0000 Uani . . . . . . 
H8 H 0.9988(3) 0.1471(6) 0.2885(2) 0.0189 1.0000 Uani . . . . . . 
loop_
_atom_site_aniso_label
_atom_site_aniso_U_11
_atom_site_aniso_U_22
_atom_site_aniso_U_33
_atom_site_aniso_U_23
_atom_site_aniso_U_13
_atom_site_aniso_U_12
C1 0.0058(3) 0.0047(4) 0.0053(3) 0.0009(3) 0.0004(2) 0.0013(3) 
H1 0.0210(10) 0.0236(11) 0.0140(8) -0.0005(8) 0.0004(7) -0.0021(9) 
N1 0.0093(3) 0.0074(3) 0.0060(2) 0.0010(2) 0.0008(2) 0.0026(2) 
O1 0.0088(4) 0.0068(5) 0.0049(4) 0.0013(3) 0.0001(3) 0.0028(4) 
C2 0.0077(4) 0.0060(4) 0.0047(3) -0.0002(3) 0.0006(3) 0.0029(3) 
H2 0.0342(12) 0.0256(12) 0.0112(8) -0.0013(8) 0.0041(8) 0.0106(11) 
N2 0.0066(2) 0.0067(3) 0.0071(2) 0.0013(2) 0.00022(19) 0.0013(3) 
O2 0.0106(5) 0.0078(5) 0.0039(4) -0.0012(4) 0.0005(3) 0.0021(4) 
C3 0.0072(4) 0.0049(4) 0.0053(3) -0.0005(3) 0.0002(3) 0.0028(3) 
H3 0.0293(11) 0.0229(11) 0.0155(8) 0.0049(9) -0.0004(8) 0.0112(11) 
O3 0.0082(4) 0.0062(4) 0.0075(4) 0.0000(4) 0.0008(3) 0.0029(4) 
C4 0.0054(3) 0.0048(4) 0.0059(3) -0.0006(3) 0.0010(3) 0.0007(3) 
H4 0.0258(11) 0.0156(9) 0.0208(9) -0.0016(8) 0.0038(8) 0.0083(10) 
O4 0.0085(4) 0.0068(4) 0.0086(4) -0.0011(4) 0.0008(3) 0.0024(4) 
C5 0.0058(3) 0.0056(4) 0.0043(3) -0.0002(3) 0.0002(3) 0.0010(3) 
H5 0.0305(12) 0.0245(12) 0.0115(8) 0.0032(8) -0.0007(8) 0.0045(10) 
C6 0.0074(4) 0.0069(4) 0.0042(3) 0.0001(3) 0.0009(3) 0.0016(3) 
H6 0.0270(10) 0.0211(12) 0.0176(9) -0.0053(9) 0.0046(8) 0.0058(10) 
C7 0.0071(3) 0.0070(4) 0.0046(3) 0.0007(3) -0.0005(3) 0.0002(3) 
H7 0.0239(10) 0.0247(11) 0.0110(8) 0.0024(9) -0.0025(7) 0.0032(10) 
C8 0.0065(3) 0.0055(4) 0.0076(3) -0.0004(3) 0.0006(3) 0.0018(4) 
C9 0.0068(3) 0.0069(4) 0.0051(3) -0.0011(3) 0.0007(3) 0.0007(3) 
H9 0.0252(11) 0.0213(12) 0.0234(10) -0.0050(9) 0.0055(8) 0.0081(10) 
H10 0.0269(11) 0.0306(13) 0.0087(8) -0.0016(8) -0.0015(7) 0.0032(11) 
H8 0.0165(9) 0.0189(10) 0.0209(10) 0.0043(8) 0.0002(7) 0.0071(9) 

_refine_ls_extinction_coef 2.0(4) 
_refine_ls_extinction_method 
    'Larson (1970), Equation 22'
_oxford_refine_ls_scale 2.066(4) 
loop_
 _geom_bond_atom_site_label_1
 _geom_bond_site_symmetry_1
 _geom_bond_atom_site_label_2
 _geom_bond_site_symmetry_2
 _geom_bond_distance
 _geom_bond_publ_flag
C1 . O1 . 1.2872(15)    yes
C1 . C2 . 1.5043(15)    yes
C1 . O3 . 1.2445(15)    yes
H1 . O1 . 1.194(3)    no
H1 . O2 . 1.234(3)    no
N1 . H4 . 1.023(3)    no
N1 . C5 . 1.3381(12)    yes
N1 . H5 . 1.024(2)    no
C2 . H2 . 1.092(3)    no
C2 . C3 . 1.3489(14)    yes
N2 . C7 . 1.3561(13)    yes
N2 . C8 . 1.3534(12)    yes
N2 . H8 . 1.055(3)    no
O2 . C4 . 1.2968(15)    yes
C3 . H3 . 1.090(3)    no
C3 . C4 . 1.5009(14)    yes
C4 . O4 . 1.2377(15)    yes
C5 . C6 . 1.4234(14)    yes
C5 . C9 . 1.4263(14)    yes
C6 . H6 . 1.090(3)    no
C6 . C7 . 1.3716(15)    yes
C7 . H7 . 1.096(2)    no
C8 . C9 . 1.3720(15)    yes
C8 . H9 . 1.087(3)    no
C9 . H10 . 1.096(2)    no
loop_
 _geom_angle_atom_site_label_1
 _geom_angle_site_symmetry_1
 _geom_angle_atom_site_label_2
 _geom_angle_site_symmetry_2
 _geom_angle_atom_site_label_3
 _geom_angle_site_symmetry_3
 _geom_angle
 _geom_angle_publ_flag
O1 . C1 . C2 . 120.35(10)    yes
O1 . C1 . O3 . 123.09(11)    yes
C2 . C1 . O3 . 116.55(9)    yes
O1 . H1 . O2 . 177.0(2)    no
H4 . N1 . C5 . 118.92(16)    no
H4 . N1 . H5 . 121.4(2)    no
C5 . N1 . H5 . 119.26(18)    no
H1 . O1 . C1 . 110.54(15)    no
C1 . C2 . H2 . 112.79(18)    no
C1 . C2 . C3 . 130.64(9)    yes
H2 . C2 . C3 . 116.57(18)    no
C7 . N2 . C8 . 120.61(8)    yes
C7 . N2 . H8 . 118.79(16)    no
C8 . N2 . H8 . 120.60(16)    no
H1 . O2 . C4 . 111.85(14)    no
C2 . C3 . H3 . 117.35(17)    no
C2 . C3 . C4 . 130.20(9)    yes
H3 . C3 . C4 . 112.44(17)    no
C3 . C4 . O2 . 119.20(10)    yes
C3 . C4 . O4 . 117.60(10)    yes
O2 . C4 . O4 . 123.20(11)    yes
N1 . C5 . C6 . 120.90(9)    yes
N1 . C5 . C9 . 121.71(8)    yes
C6 . C5 . C9 . 117.39(9)    yes
C5 . C6 . H6 . 120.10(17)    no
C5 . C6 . C7 . 119.71(9)    yes
H6 . C6 . C7 . 120.17(17)    no
C6 . C7 . N2 . 121.29(8)    yes
C6 . C7 . H7 . 122.02(18)    no
N2 . C7 . H7 . 116.68(17)    no
N2 . C8 . C9 . 121.49(9)    yes
N2 . C8 . H9 . 116.48(18)    no
C9 . C8 . H9 . 122.03(18)    no
C5 . C9 . C8 . 119.49(9)    yes
C5 . C9 . H10 . 120.44(19)    no
C8 . C9 . H10 . 120.06(19)    no
loop_
 _geom_hbond_atom_site_label_D
 _geom_hbond_site_symmetry_D
 _geom_hbond_atom_site_label_H
 _geom_hbond_site_symmetry_H
 _geom_hbond_atom_site_label_A
 _geom_hbond_site_symmetry_A
 _geom_hbond_angle_DHA
 _geom_hbond_distance_DH
 _geom_hbond_distance_HA
 _geom_hbond_distance_DA
 _geom_hbond_publ_flag
O1 . H1 . O2 . 177.0(2) 1.194 1.234 2.4268(16)    yes
O1 . H1 . C4 . 141.93(18) 1.194 2.097 3.1242(16)    yes
N1 . H4 . O4 . 162.3(2) 1.023 1.885 2.8767(16)    yes
N1 . H5 . O2 2_645 160.2(2) 1.024 1.915 2.8997(16)    yes
C6 . H6 . O4 . 132.2(2) 1.090 2.474 3.3064(16)    yes
C7 . H7 . O3 2_636 163.3(2) 1.096 2.236 3.3001(16)    yes
C9 . H10 . O1 2_635 140.3(2) 1.096 2.406 3.3238(16)    yes
N2 . H8 . C1 1_635 164.3(2) 1.055 2.541 3.5682(16)    yes
N2 . H8 . O3 1_635 170.4(2) 1.055 1.688 2.7337(16)    yes


_iucr_refine_instructions_details
;
#
# Punched on 05/08/15 at 17: 4: 7
#
#LIST     12                                                                    
BLOCK 
CONT SCALE 
CONT C    (    1 ,X'S,U'S) UNTIL LAST 
CONT EXTPARAM 
END                                                                             
#
# Punched on 05/08/15 at 17: 4: 7
#
#LIST     16                                                                    
NO 
REM   HREST   START (DO NOT REMOVE THIS LINE) 
REM   HREST   END (DO NOT REMOVE THIS LINE) 
END                                                                             
;
#end of refcif 
# choose from: rm (reference molecule of known chirality), 
# ad (anomolous dispersion - Flack), rmad (rm and ad), 
# syn (from synthesis), unk (unknown) or . (not applicable). 
_chemical_absolute_configuration  'unk' 
 
