 
data_merge_xprep 
 
_audit_creation_method            SHELXL-97 
_chemical_name_systematic 
; 
 ? 
; 
_chemical_name_common             ? 
_chemical_melting_point           ? 
_chemical_formula_moiety          ? 
_chemical_formula_sum 
 'C18 H16 Si' 
_chemical_formula_weight          260.40 
 
loop_ 
 _atom_type_symbol 
 _atom_type_description 
 _atom_type_scat_dispersion_real 
 _atom_type_scat_dispersion_imag 
 _atom_type_scat_source 
 'C'  'C'   0.0033   0.0016 
 'International Tables Vol C Tables 4.2.6.8 and 6.1.1.4' 
 'H'  'H'   0.0000   0.0000 
 'International Tables Vol C Tables 4.2.6.8 and 6.1.1.4' 
 'Si'  'Si'   0.0817   0.0704 
 'International Tables Vol C Tables 4.2.6.8 and 6.1.1.4' 
 
_symmetry_cell_setting            ? 
_symmetry_space_group_name_H-M    ? 
 
loop_ 
 _symmetry_equiv_pos_as_xyz 
 'x, y, z' 
 '-x, y+1/2, -z+1/2' 
 '-x, -y, -z' 
 'x, -y-1/2, z-1/2' 
 
_cell_length_a                    10.0941(4) 
_cell_length_b                    11.4442(5) 
_cell_length_c                    13.2834(7) 
_cell_angle_alpha                 90.00 
_cell_angle_beta                  110.353(2) 
_cell_angle_gamma                 90.00 
_cell_volume                      1438.68(11) 
_cell_formula_units_Z             4 
_cell_measurement_temperature     100(2) 
_cell_measurement_reflns_used     ? 
_cell_measurement_theta_min       ? 
_cell_measurement_theta_max       ? 
 
_exptl_crystal_description        ? 
_exptl_crystal_colour             ? 
_exptl_crystal_size_max           ? 
_exptl_crystal_size_mid           ? 
_exptl_crystal_size_min           ? 
_exptl_crystal_density_meas       ? 
_exptl_crystal_density_diffrn     1.202 
_exptl_crystal_density_method     'not measured' 
_exptl_crystal_F_000              552 
_exptl_absorpt_coefficient_mu     0.147 
_exptl_absorpt_correction_type    ? 
_exptl_absorpt_correction_T_min   ? 
_exptl_absorpt_correction_T_max   ? 
_exptl_absorpt_process_details    ? 
 
_exptl_special_details 
; 
 ? 
; 
 
_diffrn_ambient_temperature       100(2) 
_diffrn_radiation_wavelength      0.71073 
_diffrn_radiation_type            MoK\a 
_diffrn_radiation_source          'fine-focus sealed tube' 
_diffrn_radiation_monochromator   graphite 
_diffrn_measurement_device_type   ? 
_diffrn_measurement_method        ? 
_diffrn_detector_area_resol_mean  ? 
_diffrn_standards_number          ? 
_diffrn_standards_interval_count  ? 
_diffrn_standards_interval_time   ? 
_diffrn_standards_decay_%         ? 
_diffrn_reflns_number             6982 
_diffrn_reflns_av_R_equivalents   0.0000 
_diffrn_reflns_av_sigmaI/netI     0.0657 
_diffrn_reflns_limit_h_min        -16 
_diffrn_reflns_limit_h_max        15 
_diffrn_reflns_limit_k_min        0 
_diffrn_reflns_limit_k_max        19 
_diffrn_reflns_limit_l_min        0 
_diffrn_reflns_limit_l_max        22 
_diffrn_reflns_theta_min          2.42 
_diffrn_reflns_theta_max          36.41 
_reflns_number_total              6982 
_reflns_number_gt                 4830 
_reflns_threshold_expression      >2sigma(I) 
 
_computing_data_collection        ? 
_computing_cell_refinement        ? 
_computing_data_reduction         ? 
_computing_structure_solution     'SHELXS-97 (Sheldrick, 1990)' 
_computing_structure_refinement   'SHELXL-97 (Sheldrick, 1997)' 
_computing_molecular_graphics     ? 
_computing_publication_material   ? 
 
_refine_special_details 
; 
 Refinement of F^2^ against ALL reflections.  The weighted R-factor wR and 
 goodness of fit S are based on F^2^, conventional R-factors R are based 
 on F, with F set to zero for negative F^2^. The threshold expression of 
 F^2^ > 2sigma(F^2^) is used only for calculating R-factors(gt) etc. and is 
 not relevant to the choice of reflections for refinement.  R-factors based 
 on F^2^ are statistically about twice as large as those based on F, and R- 
 factors based on ALL data will be even larger. 
; 
 
_refine_ls_structure_factor_coef  Fsqd  
_refine_ls_matrix_type            full 
_refine_ls_weighting_scheme       calc  
_refine_ls_weighting_details 
 'calc w=1/[\s^2^(Fo^2^)+(0.0656P)^2^+0.0000P] where P=(Fo^2^+2Fc^2^)/3' 
_atom_sites_solution_primary      direct 
_atom_sites_solution_secondary    difmap 
_atom_sites_solution_hydrogens    geom 
_refine_ls_hydrogen_treatment     mixed 
_refine_ls_extinction_method      none 
_refine_ls_extinction_coef        ? 
_refine_ls_number_reflns          6982 
_refine_ls_number_parameters      236 
_refine_ls_number_restraints      0 
_refine_ls_R_factor_all           0.0790 
_refine_ls_R_factor_gt            0.0478 
_refine_ls_wR_factor_ref          0.1227 
_refine_ls_wR_factor_gt           0.1120 
_refine_ls_goodness_of_fit_ref    0.960 
_refine_ls_restrained_S_all       0.960 
_refine_ls_shift/su_max           0.001 
_refine_ls_shift/su_mean          0.000 
 
loop_ 
 _atom_site_label 
 _atom_site_type_symbol 
 _atom_site_fract_x 
 _atom_site_fract_y 
 _atom_site_fract_z 
 _atom_site_U_iso_or_equiv 
 _atom_site_adp_type 
 _atom_site_occupancy 
 _atom_site_symmetry_multiplicity 
 _atom_site_calc_flag 
 _atom_site_refinement_flags 
 _atom_site_disorder_assembly 
 _atom_site_disorder_group 
Si1 Si 0.76372(3) 0.96691(2) 0.19074(2) 0.01152(7) Uani 1 1 d . . . 
C1 C 0.88784(12) 1.29453(10) 0.03203(9) 0.0181(2) Uani 1 1 d . . . 
H1A H 0.9157(16) 1.3628(14) -0.0005(12) 0.023(4) Uiso 1 1 d . . . 
C2 C 0.96383(11) 1.19114(10) 0.04447(9) 0.01719(19) Uani 1 1 d . . . 
H2 H 1.0469(16) 1.1849(14) 0.0223(12) 0.024(4) Uiso 1 1 d . . . 
C3 C 0.92411(11) 1.09472(9) 0.09076(8) 0.01498(18) Uani 1 1 d . . . 
H3 H 0.9788(17) 1.0213(14) 0.0989(13) 0.023(4) Uiso 1 1 d . . . 
C4 C 0.80798(10) 1.09935(9) 0.12602(8) 0.01275(17) Uani 1 1 d . . . 
C5 C 0.76721(10) 0.83330(9) 0.11132(8) 0.01216(16) Uani 1 1 d . . . 
C6 C 0.67657(11) 0.82020(9) 0.00442(8) 0.01495(18) Uani 1 1 d . . . 
H6 H 0.6122(14) 0.8826(12) -0.0345(11) 0.014(3) Uiso 1 1 d . . . 
C7 C 0.67547(11) 0.71761(10) -0.05208(8) 0.01698(19) Uani 1 1 d . . . 
H7 H 0.6083(16) 0.7120(13) -0.1237(12) 0.024(4) Uiso 1 1 d . . . 
C8 C 0.76612(12) 0.62667(9) -0.00290(9) 0.01629(18) Uani 1 1 d . . . 
H8 H 0.7642(15) 0.5588(14) -0.0433(12) 0.022(4) Uiso 1 1 d . . . 
C9 C 0.33227(12) 0.99922(11) 0.24691(10) 0.0198(2) Uani 1 1 d . . . 
H9 H 0.2424(15) 1.0066(13) 0.2598(12) 0.018(3) Uiso 1 1 d . . . 
C10 C 0.44164(12) 1.07613(10) 0.29737(9) 0.0197(2) Uani 1 1 d . . . 
H10 H 0.4267(17) 1.1348(15) 0.3447(13) 0.030(4) Uiso 1 1 d . . . 
C11 C 0.56884(12) 1.06798(10) 0.27909(8) 0.01630(18) Uani 1 1 d . . . 
H11 H 0.6443(16) 1.1233(14) 0.3162(12) 0.022(4) Uiso 1 1 d . . . 
C12 C 0.58987(10) 0.98202(8) 0.21012(8) 0.01222(16) Uani 1 1 d . . . 
C13 C 0.47759(11) 0.90548(9) 0.16065(8) 0.01419(17) Uani 1 1 d . . . 
H13 H 0.4875(14) 0.8444(13) 0.1133(11) 0.015(3) Uiso 1 1 d . . . 
C14 C 0.35016(11) 0.91400(10) 0.17862(9) 0.01734(19) Uani 1 1 d . . . 
H14 H 0.2740(16) 0.8613(14) 0.1455(12) 0.026(4) Uiso 1 1 d . . . 
C15 C 0.77248(12) 1.30142(10) 0.06587(9) 0.0186(2) Uani 1 1 d . . . 
H15 H 0.7196(16) 1.3732(14) 0.0563(12) 0.024(4) Uiso 1 1 d . . . 
C16 C 0.73324(11) 1.20451(9) 0.11279(8) 0.01591(18) Uani 1 1 d . . . 
H16 H 0.6504(15) 1.2082(12) 0.1335(12) 0.019(3) Uiso 1 1 d . . . 
C17 C 0.85828(11) 0.63854(9) 0.10207(8) 0.01612(18) Uani 1 1 d . . . 
H17 H 0.9186(15) 0.5751(13) 0.1338(11) 0.017(3) Uiso 1 1 d . . . 
C18 C 0.85853(11) 0.74076(9) 0.15877(8) 0.01444(18) Uani 1 1 d . . . 
H18 H 0.9237(14) 0.7484(12) 0.2310(11) 0.015(3) Uiso 1 1 d . . . 
H1 H 0.8707(14) 0.9551(11) 0.2918(11) 0.010(3) Uiso 1 1 d . . . 
 
loop_ 
 _atom_site_aniso_label 
 _atom_site_aniso_U_11 
 _atom_site_aniso_U_22 
 _atom_site_aniso_U_33 
 _atom_site_aniso_U_23 
 _atom_site_aniso_U_13 
 _atom_site_aniso_U_12 
Si1 0.01181(12) 0.01010(13) 0.01232(12) -0.00011(9) 0.00379(9) -0.00053(9) 
C1 0.0224(5) 0.0137(5) 0.0195(4) 0.0006(4) 0.0091(4) -0.0045(4) 
C2 0.0170(4) 0.0176(5) 0.0191(4) -0.0012(4) 0.0089(4) -0.0033(4) 
C3 0.0154(4) 0.0133(4) 0.0173(4) -0.0013(3) 0.0071(3) -0.0008(3) 
C4 0.0133(4) 0.0110(4) 0.0139(4) -0.0016(3) 0.0046(3) -0.0018(3) 
C5 0.0131(4) 0.0105(4) 0.0139(4) 0.0015(3) 0.0059(3) 0.0003(3) 
C6 0.0152(4) 0.0134(4) 0.0149(4) 0.0010(3) 0.0035(3) 0.0028(3) 
C7 0.0178(5) 0.0169(5) 0.0154(4) -0.0013(4) 0.0048(4) 0.0006(4) 
C8 0.0202(5) 0.0109(4) 0.0204(4) -0.0011(4) 0.0104(4) -0.0002(4) 
C9 0.0167(5) 0.0210(5) 0.0246(5) 0.0002(4) 0.0109(4) 0.0011(4) 
C10 0.0224(5) 0.0172(5) 0.0231(5) -0.0041(4) 0.0123(4) 0.0005(4) 
C11 0.0188(5) 0.0131(4) 0.0182(4) -0.0032(3) 0.0081(4) -0.0028(4) 
C12 0.0140(4) 0.0098(4) 0.0128(4) 0.0011(3) 0.0045(3) 0.0004(3) 
C13 0.0149(4) 0.0116(4) 0.0158(4) -0.0005(3) 0.0049(3) -0.0002(3) 
C14 0.0139(4) 0.0175(5) 0.0201(4) -0.0005(4) 0.0053(4) -0.0019(4) 
C15 0.0220(5) 0.0119(5) 0.0232(5) 0.0018(4) 0.0097(4) 0.0012(4) 
C16 0.0172(4) 0.0132(4) 0.0193(4) 0.0011(3) 0.0088(4) 0.0011(3) 
C17 0.0188(5) 0.0115(4) 0.0198(4) 0.0036(3) 0.0088(4) 0.0036(4) 
C18 0.0147(4) 0.0140(4) 0.0145(4) 0.0030(3) 0.0049(3) 0.0017(3) 
 
_geom_special_details 
; 
 All esds (except the esd in the dihedral angle between two l.s. planes) 
 are estimated using the full covariance matrix.  The cell esds are taken 
 into account individually in the estimation of esds in distances, angles 
 and torsion angles; correlations between esds in cell parameters are only 
 used when they are defined by crystal symmetry.  An approximate (isotropic) 
 treatment of cell esds is used for estimating esds involving l.s. planes. 
; 
 
loop_ 
 _geom_bond_atom_site_label_1 
 _geom_bond_atom_site_label_2 
 _geom_bond_distance 
 _geom_bond_site_symmetry_2 
 _geom_bond_publ_flag 
Si1 C5 1.8649(10) . ? 
Si1 C12 1.8682(10) . ? 
Si1 C4 1.8716(10) . ? 
Si1 H1 1.406(14) . ? 
C1 C2 1.3883(16) . ? 
C1 C15 1.3886(15) . ? 
C1 H1A 0.980(16) . ? 
C2 C3 1.3885(15) . ? 
C2 H2 0.983(15) . ? 
C3 C4 1.4065(14) . ? 
C3 H3 0.991(16) . ? 
C4 C16 1.3987(14) . ? 
C5 C18 1.4016(14) . ? 
C5 C6 1.4043(14) . ? 
C6 C7 1.3913(15) . ? 
C6 H6 0.983(14) . ? 
C7 C8 1.3898(15) . ? 
C7 H7 0.960(15) . ? 
C8 C17 1.3878(15) . ? 
C8 H8 0.940(16) . ? 
C9 C14 1.3859(16) . ? 
C9 C10 1.3885(17) . ? 
C9 H9 0.984(15) . ? 
C10 C11 1.3904(15) . ? 
C10 H10 0.966(16) . ? 
C11 C12 1.4098(14) . ? 
C11 H11 0.981(16) . ? 
C12 C13 1.4020(14) . ? 
C13 C14 1.3909(14) . ? 
C13 H13 0.969(14) . ? 
C14 H14 0.956(16) . ? 
C15 C16 1.3953(15) . ? 
C15 H15 0.964(16) . ? 
C16 H16 0.968(14) . ? 
C17 C18 1.3908(15) . ? 
C17 H17 0.947(15) . ? 
C18 H18 0.961(14) . ? 
 
loop_ 
 _geom_angle_atom_site_label_1 
 _geom_angle_atom_site_label_2 
 _geom_angle_atom_site_label_3 
 _geom_angle 
 _geom_angle_site_symmetry_1 
 _geom_angle_site_symmetry_3 
 _geom_angle_publ_flag 
C5 Si1 C12 110.93(4) . . ? 
C5 Si1 C4 110.46(4) . . ? 
C12 Si1 C4 111.97(4) . . ? 
C5 Si1 H1 107.6(5) . . ? 
C12 Si1 H1 108.9(6) . . ? 
C4 Si1 H1 106.8(5) . . ? 
C2 C1 C15 120.05(10) . . ? 
C2 C1 H1A 120.0(9) . . ? 
C15 C1 H1A 119.9(9) . . ? 
C1 C2 C3 119.82(10) . . ? 
C1 C2 H2 121.3(9) . . ? 
C3 C2 H2 118.9(9) . . ? 
C2 C3 C4 121.33(10) . . ? 
C2 C3 H3 119.1(9) . . ? 
C4 C3 H3 119.6(9) . . ? 
C16 C4 C3 117.78(9) . . ? 
C16 C4 Si1 123.37(7) . . ? 
C3 C4 Si1 118.83(8) . . ? 
C18 C5 C6 117.99(9) . . ? 
C18 C5 Si1 120.26(7) . . ? 
C6 C5 Si1 121.72(7) . . ? 
C7 C6 C5 121.05(9) . . ? 
C7 C6 H6 116.7(8) . . ? 
C5 C6 H6 122.3(8) . . ? 
C8 C7 C6 119.86(10) . . ? 
C8 C7 H7 122.6(9) . . ? 
C6 C7 H7 117.5(9) . . ? 
C17 C8 C7 120.04(10) . . ? 
C17 C8 H8 121.8(9) . . ? 
C7 C8 H8 118.1(9) . . ? 
C14 C9 C10 119.95(10) . . ? 
C14 C9 H9 120.8(9) . . ? 
C10 C9 H9 119.2(9) . . ? 
C9 C10 C11 120.04(10) . . ? 
C9 C10 H10 118.5(10) . . ? 
C11 C10 H10 121.5(10) . . ? 
C10 C11 C12 121.15(10) . . ? 
C10 C11 H11 118.1(9) . . ? 
C12 C11 H11 120.7(9) . . ? 
C13 C12 C11 117.43(9) . . ? 
C13 C12 Si1 121.50(7) . . ? 
C11 C12 Si1 121.01(8) . . ? 
C14 C13 C12 121.39(9) . . ? 
C14 C13 H13 118.2(8) . . ? 
C12 C13 H13 120.4(8) . . ? 
C9 C14 C13 120.03(10) . . ? 
C9 C14 H14 118.6(9) . . ? 
C13 C14 H14 121.4(9) . . ? 
C1 C15 C16 119.98(10) . . ? 
C1 C15 H15 119.6(9) . . ? 
C16 C15 H15 120.4(9) . . ? 
C15 C16 C4 121.03(10) . . ? 
C15 C16 H16 120.0(9) . . ? 
C4 C16 H16 118.9(9) . . ? 
C8 C17 C18 120.05(10) . . ? 
C8 C17 H17 118.4(9) . . ? 
C18 C17 H17 121.6(9) . . ? 
C17 C18 C5 120.99(9) . . ? 
C17 C18 H18 119.3(8) . . ? 
C5 C18 H18 119.7(8) . . ? 
 
loop_ 
 _geom_torsion_atom_site_label_1 
 _geom_torsion_atom_site_label_2 
 _geom_torsion_atom_site_label_3 
 _geom_torsion_atom_site_label_4 
 _geom_torsion 
 _geom_torsion_site_symmetry_1 
 _geom_torsion_site_symmetry_2 
 _geom_torsion_site_symmetry_3 
 _geom_torsion_site_symmetry_4 
 _geom_torsion_publ_flag 
C15 C1 C2 C3 0.04(17) . . . . ? 
C1 C2 C3 C4 -0.22(16) . . . . ? 
C2 C3 C4 C16 0.12(15) . . . . ? 
C2 C3 C4 Si1 -178.48(8) . . . . ? 
C5 Si1 C4 C16 135.45(9) . . . . ? 
C12 Si1 C4 C16 11.27(10) . . . . ? 
C5 Si1 C4 C3 -46.04(9) . . . . ? 
C12 Si1 C4 C3 -170.21(8) . . . . ? 
C12 Si1 C5 C18 -114.17(8) . . . . ? 
C4 Si1 C5 C18 121.07(8) . . . . ? 
C12 Si1 C5 C6 63.75(9) . . . . ? 
C4 Si1 C5 C6 -61.02(9) . . . . ? 
C18 C5 C6 C7 1.21(15) . . . . ? 
Si1 C5 C6 C7 -176.75(8) . . . . ? 
C5 C6 C7 C8 -0.63(16) . . . . ? 
C6 C7 C8 C17 -0.49(16) . . . . ? 
C14 C9 C10 C11 0.25(18) . . . . ? 
C9 C10 C11 C12 -0.33(17) . . . . ? 
C10 C11 C12 C13 0.15(15) . . . . ? 
C10 C11 C12 Si1 -177.13(9) . . . . ? 
C5 Si1 C12 C13 -5.33(10) . . . . ? 
C4 Si1 C12 C13 118.59(8) . . . . ? 
C5 Si1 C12 C11 171.83(8) . . . . ? 
C4 Si1 C12 C11 -64.25(9) . . . . ? 
C11 C12 C13 C14 0.13(15) . . . . ? 
Si1 C12 C13 C14 177.38(8) . . . . ? 
C10 C9 C14 C13 0.02(17) . . . . ? 
C12 C13 C14 C9 -0.21(16) . . . . ? 
C2 C1 C15 C16 0.24(17) . . . . ? 
C1 C15 C16 C4 -0.35(17) . . . . ? 
C3 C4 C16 C15 0.17(15) . . . . ? 
Si1 C4 C16 C15 178.70(8) . . . . ? 
C7 C8 C17 C18 1.00(15) . . . . ? 
C8 C17 C18 C5 -0.39(15) . . . . ? 
C6 C5 C18 C17 -0.70(14) . . . . ? 
Si1 C5 C18 C17 177.30(8) . . . . ? 
 
_diffrn_measured_fraction_theta_max    0.994 
_diffrn_reflns_theta_full              36.41 
_diffrn_measured_fraction_theta_full   0.994 
_refine_diff_density_max    0.665 
_refine_diff_density_min   -0.244 
_refine_diff_density_rms    0.081 
